p wcnf 20 184 4
1 1 3 5 7 9 11 13 15 17 19 0
2 2 4 6 8 10 12 14 16 18 20 0
4 -1 -4 0
4 -2 -3 0
4 -1 -6 0
4 -2 -5 0
4 -1 -8 0
4 -2 -7 0
4 -1 -10 0
4 -2 -9 0
4 -1 -12 0
4 -2 -11 0
4 -1 -14 0
4 -2 -13 0
4 -1 -18 0
4 -2 -17 0
4 -1 -20 0
4 -2 -19 0
4 -3 -6 0
4 -4 -5 0
4 -3 -8 0
4 -4 -7 0
4 -3 -10 0
4 -4 -9 0
4 -3 -12 0
4 -4 -11 0
4 -3 -14 0
4 -4 -13 0
4 -3 -16 0
4 -4 -15 0
4 -3 -18 0
4 -4 -17 0
4 -3 -20 0
4 -4 -19 0
4 -5 -8 0
4 -6 -7 0
4 -5 -10 0
4 -6 -9 0
4 -5 -12 0
4 -6 -11 0
4 -5 -14 0
4 -6 -13 0
4 -5 -16 0
4 -6 -15 0
4 -5 -20 0
4 -6 -19 0
4 -7 -10 0
4 -8 -9 0
4 -7 -12 0
4 -8 -11 0
4 -7 -14 0
4 -8 -13 0
4 -7 -16 0
4 -8 -15 0
4 -7 -18 0
4 -8 -17 0
4 -7 -20 0
4 -8 -19 0
4 -9 -12 0
4 -10 -11 0
4 -9 -14 0
4 -10 -13 0
4 -9 -16 0
4 -10 -15 0
4 -9 -20 0
4 -10 -19 0
4 -11 -14 0
4 -12 -13 0
4 -11 -16 0
4 -12 -15 0
4 -11 -20 0
4 -12 -19 0
4 -13 -16 0
4 -14 -15 0
4 -13 -18 0
4 -14 -17 0
4 -13 -20 0
4 -14 -19 0
4 -15 -18 0
4 -16 -17 0
4 -15 -20 0
4 -16 -19 0
4 -17 -20 0
4 -18 -19 0
4 -1 -3 0
4 -1 -5 0
4 -1 -7 0
4 -1 -9 0
4 -1 -11 0
4 -1 -13 0
4 -1 -15 0
4 -1 -17 0
4 -1 -19 0
4 -2 -4 0
4 -2 -6 0
4 -2 -8 0
4 -2 -10 0
4 -2 -12 0
4 -2 -14 0
4 -2 -16 0
4 -2 -18 0
4 -2 -20 0
4 -3 -5 0
4 -3 -7 0
4 -3 -9 0
4 -3 -11 0
4 -3 -13 0
4 -3 -15 0
4 -3 -17 0
4 -3 -19 0
4 -4 -6 0
4 -4 -8 0
4 -4 -10 0
4 -4 -12 0
4 -4 -14 0
4 -4 -16 0
4 -4 -18 0
4 -4 -20 0
4 -5 -7 0
4 -5 -9 0
4 -5 -11 0
4 -5 -13 0
4 -5 -15 0
4 -5 -17 0
4 -5 -19 0
4 -6 -8 0
4 -6 -10 0
4 -6 -12 0
4 -6 -14 0
4 -6 -16 0
4 -6 -18 0
4 -6 -20 0
4 -7 -9 0
4 -7 -11 0
4 -7 -13 0
4 -7 -15 0
4 -7 -17 0
4 -7 -19 0
4 -8 -10 0
4 -8 -12 0
4 -8 -14 0
4 -8 -16 0
4 -8 -18 0
4 -8 -20 0
4 -9 -11 0
4 -9 -13 0
4 -9 -15 0
4 -9 -17 0
4 -9 -19 0
4 -10 -12 0
4 -10 -14 0
4 -10 -16 0
4 -10 -18 0
4 -10 -20 0
4 -11 -13 0
4 -11 -15 0
4 -11 -17 0
4 -11 -19 0
4 -12 -14 0
4 -12 -16 0
4 -12 -18 0
4 -12 -20 0
4 -13 -15 0
4 -13 -17 0
4 -13 -19 0
4 -14 -16 0
4 -14 -18 0
4 -14 -20 0
4 -15 -17 0
4 -15 -19 0
4 -16 -18 0
4 -16 -20 0
4 -17 -19 0
4 -18 -20 0
4 -1 -2 0
4 -3 -4 0
4 -5 -6 0
4 -7 -8 0
4 -9 -10 0
4 -11 -12 0
4 -13 -14 0
4 -15 -16 0
4 -17 -18 0
4 -19 -20 0
